language Essence 1.3

letting class be function(1 --> 1, 2 --> 1, 3 --> 1, 4 --> 1, 5 --> 1)
letting deck_length be 11
letting deck_width be 97
letting length be function(1 --> 10, 2 --> 11, 3 --> 3, 4 --> 4, 5 --> 3)
letting n_classes be 1
letting n_containers be 5
letting separation be function()
letting width be function(1 --> 21, 2 --> 1, 3 --> 56, 4 --> 12, 5 --> 25)
